100
128
20
23
26
50
14
19
21
43
54
7
9
17
59
3
31
1
1
14
6
25
34
20
9
32
21
36
40
56
29
1
61
34
45
45
43
47
42
2
2
51
60
47
58
54
1
61
55
53
39
44
50
47
47
17
58
58
49
16
25
1
59
40
64
63
20
46
32
58
51
4
23
12
37
2
13
1
64
58
22
5
55
59
14
6
52
6
44
60
17
45
5
64
23
40
63
56
47
3
25
32